(set-info :origin "SVCOMP13 benchmarks generated by Arie Gurfinkel")
(set-logic HORN)
(declare-fun cp-rel-entry () Bool)
(declare-fun cp-rel-__UFO__0
             (Real
              Real
              Real
              Real
              Real
              Real
              Real
              Real
              Real
              Real
              Real
              Real
              Real
              Real
              Real
              Real
              Bool
              Real
              Real
              Real
              Real
              Real
              Real
              Real
              Bool
              Bool
              Bool
              Real)
             Bool)
(declare-fun cp-rel-bb.i80.i.outer
             (Real Real Real Real Real Real Real Real)
             Bool)
(declare-fun cp-rel-ERROR.i.i.i.i () Bool)
(declare-fun cp-rel-bb.i80.i
             (Real
              Real
              Real
              Real
              Real
              Real
              Real
              Real
              Real
              Bool
              Real
              Real
              Real
              Real
              Real
              Real
              Real)
             Bool)
(declare-fun cp-rel-bb.i (Real Real Real Real Real Real Real Real) Bool)
(assert |cp-rel-entry|)
(assert (forall ((?A Real) (?B Real) (?C Real) (?D Real) (?E Real) (?F Real) (?G Real) (?H Real) (?I Bool) )(let (($x534590 (= ?I true)))
(let (($x271946 (and |cp-rel-entry| (<= ?H 0.0) (>= ?G 0.0) (<= ?G 0.0) (>= ?F 0.0) (<= ?F 0.0) (>= ?E 0.0) (<= ?E 0.0) (>= ?D 0.0) (<= ?D 0.0) (>= ?C 0.0) (<= ?C 0.0) (>= ?B 0.0) (<= ?B 0.0) (>= ?A 0.0) (<= ?A 0.0) $x534590 (>= ?H 0.0))))
(=> $x271946 (|cp-rel-bb.i| ?A ?B ?C ?D ?E ?F ?G ?H)))))
)
(assert (forall ((?A Real) (?B Real) (?C Real) (?D Real) (?E Real) (?F Real) (?G Real) (?H Real) (?I Real) (?J Real) (?K Real) (?L Real) (?M Real) (?N Real) (?O Real) (?P Real) (?Q Real) (?R Bool) (?S Real) (?T Real) (?U Real) (?V Real) (?W Real) (?X Real) (?Y Real) (?Z Bool) (?A1 Bool) (?B1 Bool) (?C1 Bool) (?D1 Bool) (?E1 Bool) (?F1 Bool) (?G1 Bool) (?H1 Bool) (?I1 Bool) (?J1 Bool) (?K1 Bool) (?L1 Real) (?M1 Real) (?N1 Bool) (?O1 Bool) (?P1 Bool) (?Q1 Bool) (?R1 Bool) (?S1 Bool) (?T1 Bool) (?U1 Bool) (?V1 Bool) (?W1 Bool) (?X1 Bool) (?Y1 Bool) )(let (($x272290 (or (not ?J1) (and ?G1 ?K1 (<= ?L1 ?M1) (>= ?L1 ?M1)) (and ?D1 ?N1 ?I1 (<= ?L1 ?S) (>= ?L1 ?S)))))
(let (($x444315 (|cp-rel-bb.i80.i| ?I ?J ?K ?L ?M ?N ?O ?P ?Q ?R ?S ?T ?U ?V ?W ?X ?Y)))
(let (($x698983 (and $x444315 (= ?Y1 (or ?X1 ?Q1)) (= ?X1 (or ?P1 ?W1)) (= ?W1 (= ?L1 0.0)) (= ?M1 (ite ?V1 0.0 ?S)) (= ?V1 (= ?Y 1.0)) (= ?I1 ?U1) (= ?U1 (or ?T1 ?P1)) (= ?T1 (or ?Q1 ?R1)) (= ?F1 (or ?S1 ?R1)) (= ?S1 (or ?Q1 ?P1)) (= ?R1 (= ?V 0.0)) (= ?Q1 (= ?U 0.0)) (= ?P1 (= ?T 0.0)) (= ?C1 (= ?S 0.0)) (>= ?H ?Y) (<= ?H ?Y) (>= ?G ?X) (<= ?G ?X) (>= ?F ?W) (<= ?F ?W) (>= ?E ?Q) (<= ?E ?Q) (>= ?D ?V) (<= ?D ?V) (>= ?C ?U) (<= ?C ?U) (>= ?B ?T) (<= ?B ?T) (>= ?A ?L1) (<= ?A ?L1) (= ?O1 true) (= ?J1 true) (or (not ?J1) (and ?K1 (not ?N1)) (and ?N1 (not ?K1))) $x272290 (or (not ?G1) ?H1) (or (not ?G1) (and ?D1 ?H1 (not ?I1))) (or (not ?D1) ?E1) (or (not ?D1) (and ?Z ?E1 (not ?F1))) (or (not ?Z) ?B1) (or (not ?Z) (and ?A1 ?B1 (not ?C1))) (= ?O1 (or ?Y1 ?R1)))))
(=> $x698983 (|cp-rel-bb.i| ?A ?B ?C ?D ?E ?F ?G ?H))))))
)
(assert (forall ((?A Real) (?B Real) (?C Real) (?D Real) (?E Real) (?F Real) (?G Real) (?H Real) (?I Real) (?J Real) (?K Real) (?L Real) (?M Real) (?N Real) (?O Real) (?P Real) (?Q Bool) )(let (($x474391 (|cp-rel-bb.i80.i.outer| ?I ?J ?K ?L ?M ?N ?O ?P)))
(let (($x534590 (= ?Q true)))
(let (($x437824 (and (|cp-rel-bb.i| ?A ?B ?C ?D ?E ?F ?G ?H) (<= ?P ?H) (>= ?O ?G) (<= ?O ?G) (>= ?N ?F) (<= ?N ?F) (>= ?M ?E) (<= ?M ?E) (>= ?L ?D) (<= ?L ?D) (>= ?K ?C) (<= ?K ?C) (>= ?J ?B) (<= ?J ?B) (>= ?I ?A) (<= ?I ?A) $x534590 (>= ?P ?H))))
(=> $x437824 $x474391)))))
)
(assert (forall ((?A Real) (?B Real) (?C Real) (?D Real) (?E Real) (?F Real) (?G Real) (?H Real) (?I Real) (?J Bool) (?K Real) (?L Real) (?M Real) (?N Real) (?O Real) (?P Real) (?Q Real) (?R Bool) (?S Bool) (?T Bool) (?U Bool) (?V Bool) (?W Bool) (?X Bool) (?Y Bool) (?Z Bool) (?A1 Real) (?B1 Real) (?C1 Real) (?D1 Real) (?E1 Real) (?F1 Real) (?G1 Real) (?H1 Real) (?I1 Bool) (?J1 Bool) (?K1 Bool) (?L1 Bool) (?M1 Bool) (?N1 Bool) (?O1 Bool) (?P1 Bool) (?Q1 Bool) (?R1 Bool) (?S1 Real) (?T1 Real) (?U1 Real) (?V1 Real) (?W1 Bool) (?X1 Bool) (?Y1 Bool) (?Z1 Bool) (?A2 Bool) (?B2 Bool) (?C2 Bool) (?D2 Bool) (?E2 Bool) (?F2 Bool) (?G2 Bool) (?H2 Bool) (?I2 Bool) (?J2 Bool) (?K2 Real) (?L2 Real) (?M2 Real) (?N2 Real) (?O2 Bool) (?P2 Bool) (?Q2 Bool) (?R2 Bool) (?S2 Bool) (?T2 Bool) (?U2 Bool) (?V2 Bool) (?W2 Bool) (?X2 Bool) (?Y2 Bool) (?Z2 Bool) (?A3 Bool) (?B3 Bool) (?C3 Real) (?D3 Real) (?E3 Real) (?F3 Real) (?G3 Bool) (?H3 Bool) (?I3 Bool) (?J3 Bool) (?K3 Bool) (?L3 Bool) (?M3 Bool) (?N3 Bool) (?O3 Bool) (?P3 Real) (?Q3 Bool) (?R3 Real) (?S3 Bool) (?T3 Real) (?U3 Real) )(let (($x533980 (= ?O3 (= ?U3 0.0))))
(let (($x467593 (not ?I1)))
(let (($x320976 (or $x467593 ?J1)))
(let (($x281508 (not ?K1)))
(let (($x865534 (or $x281508 (and ?I1 ?L1 (not ?M1)))))
(let (($x574329 (or $x281508 ?L1)))
(let (($x432233 (or (not ?N1) (and ?K1 ?O1 (not ?P1)))))
(let (($x618508 (or (not ?N1) ?O1)))
(let (($x277049 (>= ?T1 ?L)))
(let (($x199754 (<= ?T1 ?L)))
(let (($x252551 (and ?R ?Y1 ?V (<= ?S1 ?K) (>= ?S1 ?K) $x199754 $x277049 (<= ?V1 ?Q) (>= ?V1 ?Q))))
(let (($x893684 (and ?I1 ?X1 ?M1 (<= ?S1 ?K) (>= ?S1 ?K) $x199754 $x277049 (<= ?V1 ?Q) (>= ?V1 ?Q))))
(let (($x318995 (>= ?V1 1.0)))
(let (($x247910 (<= ?V1 1.0)))
(let (($x418523 (>= ?S1 2.0)))
(let (($x244912 (<= ?S1 2.0)))
(let (($x325477 (not ?Q1)))
(let (($x561420 (or $x325477 (and ?N1 ?R1 $x244912 $x418523 (<= ?T1 ?U1) (>= ?T1 ?U1) $x247910 $x318995) (and ?K1 ?W1 ?P1 $x244912 $x418523 $x199754 $x277049 $x247910 $x318995) $x893684 $x252551)))
(let (($x348003 (or $x325477 (and ?R1 (not ?W1) (not ?X1) (not ?Y1)) (and ?W1 (not ?R1) (not ?X1) (not ?Y1)) (and ?X1 (not ?R1) (not ?W1) (not ?Y1)) (and ?Y1 (not ?R1) (not ?W1) (not ?X1)))))
(let (($x273583 (not ?Z1)))
(let (($x881681 (or $x273583 (and ?Q1 ?A2 ?B2))))
(let (($x625866 (or $x273583 ?A2)))
(let (($x259468 (not ?C2)))
(let (($x260210 (or $x259468 (and ?Z1 ?D2 (not ?E2)))))
(let (($x861308 (or $x259468 ?D2)))
(let (($x296801 (or (not ?F2) (and ?C2 ?G2 ?H2))))
(let (($x188695 (or (not ?F2) ?G2)))
(let (($x262279 (>= ?L2 ?M)))
(let (($x152650 (<= ?L2 ?M)))
(let (($x266332 (>= ?K2 ?T1)))
(let (($x174579 (<= ?K2 ?T1)))
(let (($x506308 (and ?Q1 ?Q2 (not ?B2) $x174579 $x266332 $x152650 $x262279 (<= ?N2 ?P) (>= ?N2 ?P))))
(let (($x443721 (and ?Z1 ?P2 ?E2 $x174579 $x266332 $x152650 $x262279 (<= ?N2 ?P) (>= ?N2 ?P))))
(let (($x501976 (>= ?N2 1.0)))
(let (($x319646 (<= ?N2 1.0)))
(let (($x413061 (>= ?K2 2.0)))
(let (($x184721 (<= ?K2 2.0)))
(let (($x51152 (not ?I2)))
(let (($x328665 (or $x51152 (and ?F2 ?J2 $x184721 $x413061 (<= ?L2 ?M2) (>= ?L2 ?M2) $x319646 $x501976) (and ?C2 ?O2 (not ?H2) $x184721 $x413061 $x152650 $x262279 $x319646 $x501976) $x443721 $x506308)))
(let (($x7011 (or $x51152 (and ?J2 (not ?O2) (not ?P2) (not ?Q2)) (and ?O2 (not ?J2) (not ?P2) (not ?Q2)) (and ?P2 (not ?J2) (not ?O2) (not ?Q2)) (and ?Q2 (not ?J2) (not ?O2) (not ?P2)))))
(let (($x837003 (not ?R2)))
(let (($x140183 (or $x837003 (and ?I2 ?S2 ?T2))))
(let (($x80446 (or $x837003 ?S2)))
(let (($x442576 (not ?U2)))
(let (($x130289 (or $x442576 (and ?R2 ?V2 (not ?W2)))))
(let (($x307879 (or $x442576 ?V2)))
(let (($x388211 (not ?X2)))
(let (($x857172 (or $x388211 (and ?U2 ?Y2 ?Z2))))
(let (($x912479 (or $x388211 ?Y2)))
(let (($x685452 (>= ?D3 ?N)))
(let (($x818845 (<= ?D3 ?N)))
(let (($x308775 (>= ?C3 ?L2)))
(let (($x466075 (<= ?C3 ?L2)))
(let (($x511323 (and ?I2 ?I3 (not ?T2) $x466075 $x308775 $x818845 $x685452 (<= ?F3 ?O) (>= ?F3 ?O))))
(let (($x45419 (and ?R2 ?H3 ?W2 $x466075 $x308775 $x818845 $x685452 (<= ?F3 ?O) (>= ?F3 ?O))))
(let (($x831288 (>= ?F3 1.0)))
(let (($x549361 (<= ?F3 1.0)))
(let (($x313139 (>= ?C3 2.0)))
(let (($x343311 (<= ?C3 2.0)))
(let (($x843902 (not ?Z2)))
(let (($x288099 (not ?A3)))
(let (($x87250 (or $x288099 (and ?X2 ?B3 $x343311 $x313139 (<= ?D3 ?E3) (>= ?D3 ?E3) $x549361 $x831288) (and ?U2 ?G3 $x843902 $x343311 $x313139 $x818845 $x685452 $x549361 $x831288) $x45419 $x511323)))
(let (($x417932 (or $x288099 (and ?B3 (not ?G3) (not ?H3) (not ?I3)) (and ?G3 (not ?B3) (not ?H3) (not ?I3)) (and ?H3 (not ?B3) (not ?G3) (not ?I3)) (and ?I3 (not ?B3) (not ?G3) (not ?H3)))))
(let (($x582447 (not ?J3)))
(let (($x392768 (or $x582447 (and ?A3 ?K3 ?L3))))
(let (($x689338 (or $x582447 ?K3)))
(let (($x279347 (or (not ?M3) (and ?J3 ?N3 (not ?O3)))))
(let (($x154758 (or (not ?M3) ?N3)))
(let (($x449896 (= ?M3 true)))
(let (($x366734 (= ?M1 (= ?P3 0.0))))
(let (($x282087 (= ?B2 (= ?T1 0.0))))
(let (($x612502 (= ?E2 (= ?R3 0.0))))
(let (($x633784 (= ?T2 (= ?L2 0.0))))
(let (($x801993 (= ?W2 (= ?T3 0.0))))
(let (($x174213 (= ?L3 (= ?D3 0.0))))
(let (($x486595 (|cp-rel-bb.i80.i| ?A ?B ?C ?D ?E ?F ?G ?H ?I ?J ?K ?L ?M ?N ?O ?P ?Q)))
(let (($x287277 (and $x486595 $x174213 (= ?E3 (ite ?J 0.0 ?N)) (= ?Z2 (= ?O 1.0)) $x801993 $x633784 (= ?M2 (ite ?S3 0.0 ?M)) (= ?S3 (= ?O 1.0)) (= ?H2 (= ?P 1.0)) $x612502 $x282087 (= ?U1 (ite ?Q3 0.0 ?L)) (= ?Q3 (= ?P 1.0)) (= ?P1 (= ?Q 1.0)) (= ?V (or ?Z ?Y)) (= ?Z (or ?X ?W)) (= ?Y (= ?N 0.0)) (= ?X (= ?M 0.0)) (= ?W (= ?L 0.0)) $x366734 (= ?U (= ?K 0.0)) (>= ?H1 ?V1) (<= ?H1 ?V1) (>= ?G1 ?N2) (<= ?G1 ?N2) (>= ?F1 ?F3) (<= ?F1 ?F3) (>= ?E1 1.0) (<= ?E1 1.0) (>= ?D1 2.0) (<= ?D1 2.0) (>= ?C1 ?C3) (<= ?C1 ?C3) (>= ?B1 ?K2) (<= ?B1 ?K2) (>= ?A1 ?S1) (<= ?A1 ?S1) (not (= ?J true)) $x449896 $x154758 $x279347 $x689338 $x392768 $x417932 $x87250 $x912479 $x857172 $x307879 $x130289 $x80446 $x140183 $x7011 $x328665 $x188695 $x296801 $x861308 $x260210 $x625866 $x881681 $x348003 $x561420 $x618508 $x432233 $x574329 $x865534 (or (not ?R) ?T) (or (not ?R) (and ?S ?T (not ?U))) $x320976 (or $x467593 (and ?S ?J1 ?U)) $x533980)))
(=> $x287277 (|cp-rel-bb.i80.i.outer| ?A1 ?B1 ?C1 ?D1 ?E1 ?F1 ?G1 ?H1))))))))))))))))))))))))))))))))))))))))))))))))))))))))))))))))))))))))))))))))
)
(assert (forall ((?A Real) (?B Real) (?C Real) (?D Real) (?E Real) (?F Real) (?G Real) (?H Real) (?I Bool) (?J Real) (?K Real) (?L Real) (?M Real) (?N Real) (?O Real) (?P Real) (?Q Real) (?R Real) (?S Real) (?T Real) (?U Real) (?V Real) (?W Real) (?X Real) (?Y Bool) )(let (($x121903 (|cp-rel-bb.i80.i| ?A ?B ?C ?D ?E ?F ?G ?H ?U ?I ?J ?K ?L ?M ?N ?O ?P)))
(let (($x534590 (= ?Y true)))
(let (($x474391 (|cp-rel-bb.i80.i.outer| ?Q ?R ?S ?T ?U ?V ?W ?X)))
(let (($x459305 (and $x474391 (>= ?P ?X) (<= ?P ?X) (>= ?O ?W) (<= ?O ?W) (>= ?N ?V) (<= ?N ?V) (>= ?M ?T) (<= ?M ?T) (>= ?L ?S) (<= ?L ?S) (>= ?K ?R) (<= ?K ?R) (>= ?J ?Q) (<= ?J ?Q) $x534590 (= ?I (= ?U 1.0)))))
(=> $x459305 $x121903))))))
)
(assert (forall ((?A Real) (?B Real) (?C Real) (?D Real) (?E Real) (?F Real) (?G Real) (?H Real) (?I Real) (?J Bool) (?K Real) (?L Real) (?M Real) (?N Real) (?O Real) (?P Real) (?Q Real) (?R Bool) (?S Bool) (?T Bool) (?U Bool) (?V Bool) (?W Bool) (?X Bool) (?Y Bool) (?Z Bool) (?A1 Bool) (?B1 Bool) (?C1 Bool) (?D1 Bool) (?E1 Bool) (?F1 Bool) (?G1 Bool) (?H1 Bool) (?I1 Bool) (?J1 Bool) (?K1 Real) (?L1 Real) (?M1 Real) (?N1 Real) (?O1 Bool) (?P1 Bool) (?Q1 Bool) (?R1 Bool) (?S1 Bool) (?T1 Bool) (?U1 Bool) (?V1 Bool) (?W1 Bool) (?X1 Bool) (?Y1 Bool) (?Z1 Bool) (?A2 Bool) (?B2 Bool) (?C2 Real) (?D2 Real) (?E2 Real) (?F2 Real) (?G2 Bool) (?H2 Bool) (?I2 Bool) (?J2 Bool) (?K2 Bool) (?L2 Bool) (?M2 Bool) (?N2 Bool) (?O2 Bool) (?P2 Bool) (?Q2 Bool) (?R2 Bool) (?S2 Bool) (?T2 Bool) (?U2 Real) (?V2 Real) (?W2 Real) (?X2 Real) (?Y2 Bool) (?Z2 Bool) (?A3 Bool) (?B3 Bool) (?C3 Bool) (?D3 Bool) (?E3 Bool) (?F3 Real) (?G3 Bool) (?H3 Real) (?I3 Bool) (?J3 Real) (?K3 Real) (?L3 Real) (?M3 Real) (?N3 Real) (?O3 Real) (?P3 Real) (?Q3 Real) (?R3 Real) )(let (($x370055 (|cp-rel-bb.i80.i| ?A ?B ?C ?D ?E ?F ?G ?H ?I ?J ?L3 ?M3 ?N3 ?O3 ?P3 ?Q3 ?R3)))
(let (($x467593 (not ?F1)))
(let (($x320976 (or $x467593 ?G1)))
(let (($x611948 (>= ?L1 ?L)))
(let (($x649825 (<= ?L1 ?L)))
(let (($x445682 (and ?R ?Q1 ?V (<= ?K1 ?K) (>= ?K1 ?K) $x649825 $x611948 (<= ?N1 ?Q) (>= ?N1 ?Q))))
(let (($x215334 (and ?A1 ?P1 ?E1 (<= ?K1 ?K) (>= ?K1 ?K) $x649825 $x611948 (<= ?N1 ?Q) (>= ?N1 ?Q))))
(let (($x569065 (and ?C1 ?O1 ?H1 (<= ?K1 2.0) (>= ?K1 2.0) $x649825 $x611948 (<= ?N1 1.0) (>= ?N1 1.0))))
(let (($x553811 (and ?F1 ?J1 (<= ?K1 2.0) (>= ?K1 2.0) (<= ?L1 ?M1) (>= ?L1 ?M1) (<= ?N1 1.0) (>= ?N1 1.0))))
(let (($x842913 (or (not ?I1) (and ?J1 (not ?O1) (not ?P1) (not ?Q1)) (and ?O1 (not ?J1) (not ?P1) (not ?Q1)) (and ?P1 (not ?J1) (not ?O1) (not ?Q1)) (and ?Q1 (not ?J1) (not ?O1) (not ?P1)))))
(let (($x358116 (>= ?D2 ?M)))
(let (($x853167 (<= ?D2 ?M)))
(let (($x320798 (not ?T1)))
(let (($x934810 (and ?I1 ?I2 $x320798 (<= ?C2 ?L1) (>= ?C2 ?L1) $x853167 $x358116 (<= ?F2 ?P) (>= ?F2 ?P))))
(let (($x251508 (and ?R1 ?H2 ?W1 (<= ?C2 ?L1) (>= ?C2 ?L1) $x853167 $x358116 (<= ?F2 ?P) (>= ?F2 ?P))))
(let (($x259468 (not ?Z1)))
(let (($x344660 (and ?U1 ?G2 $x259468 (<= ?C2 2.0) (>= ?C2 2.0) $x853167 $x358116 (<= ?F2 1.0) (>= ?F2 1.0))))
(let (($x242829 (and ?X1 ?B2 (<= ?C2 2.0) (>= ?C2 2.0) (<= ?D2 ?E2) (>= ?D2 ?E2) (<= ?F2 1.0) (>= ?F2 1.0))))
(let (($x74970 (or (not ?A2) (and ?B2 (not ?G2) (not ?H2) (not ?I2)) (and ?G2 (not ?B2) (not ?H2) (not ?I2)) (and ?H2 (not ?B2) (not ?G2) (not ?I2)) (and ?I2 (not ?B2) (not ?G2) (not ?H2)))))
(let (($x349636 (not ?P2)))
(let (($x868193 (or $x349636 ?Q2)))
(let (($x445763 (>= ?V2 ?N)))
(let (($x72728 (<= ?V2 ?N)))
(let (($x206056 (not ?L2)))
(let (($x11304 (and ?A2 ?A3 $x206056 (<= ?U2 ?D2) (>= ?U2 ?D2) $x72728 $x445763 (<= ?X2 ?O) (>= ?X2 ?O))))
(let (($x802530 (and ?J2 ?Z2 ?O2 (<= ?U2 ?D2) (>= ?U2 ?D2) $x72728 $x445763 (<= ?X2 ?O) (>= ?X2 ?O))))
(let (($x442576 (not ?R2)))
(let (($x863403 (and ?M2 ?Y2 $x442576 (<= ?U2 2.0) (>= ?U2 2.0) $x72728 $x445763 (<= ?X2 1.0) (>= ?X2 1.0))))
(let (($x570911 (and ?P2 ?T2 (<= ?U2 2.0) (>= ?U2 2.0) (<= ?V2 ?W2) (>= ?V2 ?W2) (<= ?X2 1.0) (>= ?X2 1.0))))
(let (($x518780 (not ?S2)))
(let (($x807690 (or $x518780 (and ?T2 (not ?Y2) (not ?Z2) (not ?A3)) (and ?Y2 (not ?T2) (not ?Z2) (not ?A3)) (and ?Z2 (not ?T2) (not ?Y2) (not ?A3)) (and ?A3 (not ?T2) (not ?Y2) (not ?Z2)))))
(let (($x364816 (not ?D3)))
(let (($x699213 (and ?S2 $x364816 (<= ?L3 ?K1) (>= ?L3 ?K1) (<= ?M3 ?C2) (>= ?M3 ?C2) (<= ?N3 ?U2) (>= ?N3 ?U2) (<= ?O3 ?V2) (>= ?O3 ?V2) (<= ?P3 ?X2) (>= ?P3 ?X2) (<= ?Q3 ?F2) (>= ?Q3 ?F2) (<= ?R3 ?N1) (>= ?R3 ?N1))))
(let (($x292397 (and ?B3 ?E3 (<= ?L3 ?K1) (>= ?L3 ?K1) (<= ?M3 ?C2) (>= ?M3 ?C2) (<= ?N3 ?U2) (>= ?N3 ?U2) (<= ?O3 ?V2) (>= ?O3 ?V2) (<= ?P3 ?X2) (>= ?P3 ?X2) (<= ?Q3 ?F2) (>= ?Q3 ?F2) (<= ?R3 ?N1) (>= ?R3 ?N1))))
(let (($x517938 (|cp-rel-bb.i80.i| ?A ?B ?C ?D ?E ?F ?G ?H ?I ?J ?K ?L ?M ?N ?O ?P ?Q)))
(let (($x611446 (and $x517938 (= ?D3 (= ?V2 0.0)) (= ?W2 (ite ?J 0.0 ?N)) (= ?R2 (= ?O 1.0)) (= ?O2 (= ?J3 0.0)) (= ?L2 (= ?D2 0.0)) (= ?E2 (ite ?I3 0.0 ?M)) (= ?I3 (= ?O 1.0)) (= ?Z1 (= ?P 1.0)) (= ?W1 (= ?H3 0.0)) (= ?T1 (= ?L1 0.0)) (= ?M1 (ite ?G3 0.0 ?L)) (= ?G3 (= ?P 1.0)) (= ?H1 (= ?Q 1.0)) (= ?V (or ?Z ?Y)) (= ?Z (or ?X ?W)) (= ?Y (= ?N 0.0)) (= ?X (= ?M 0.0)) (= ?W (= ?L 0.0)) (= ?E1 (= ?F3 0.0)) (= ?U (= ?K 0.0)) (or $x292397 $x699213) (or (not ?B3) ?C3) (or (not ?B3) (and ?S2 ?C3 ?D3)) $x807690 (or $x518780 $x570911 $x863403 $x802530 $x11304) $x868193 (or $x349636 (and ?M2 ?Q2 ?R2)) (or (not ?M2) ?N2) (or (not ?M2) (and ?J2 ?N2 (not ?O2))) (or (not ?J2) ?K2) (or (not ?J2) (and ?A2 ?K2 ?L2)) $x74970 (or (not ?A2) $x242829 $x344660 $x251508 $x934810) (or (not ?X1) ?Y1) (or (not ?X1) (and ?U1 ?Y1 ?Z1)) (or (not ?U1) ?V1) (or (not ?U1) (and ?R1 ?V1 (not ?W1))) (or (not ?R1) ?S1) (or (not ?R1) (and ?I1 ?S1 ?T1)) $x842913 (or (not ?I1) $x553811 $x569065 $x215334 $x445682) $x320976 (or $x467593 (and ?C1 ?G1 (not ?H1))) (or (not ?C1) ?D1) (or (not ?C1) (and ?A1 ?D1 (not ?E1))) (or (not ?R) ?T) (or (not ?R) (and ?S ?T (not ?U))) (or (not ?A1) ?B1) (or (not ?A1) (and ?S ?B1 ?U)) (= ?E3 (= ?K3 0.0)))))
(=> $x611446 $x370055))))))))))))))))))))))))))))))))))))))
)
(assert (forall ((?A Real) (?B Real) (?C Real) (?D Real) (?E Real) (?F Real) (?G Real) (?H Real) (?I Real) (?J Bool) (?K Real) (?L Real) (?M Real) (?N Real) (?O Real) (?P Real) (?Q Real) (?R Bool) (?S Bool) (?T Bool) (?U Bool) (?V Bool) (?W Bool) (?X Bool) (?Y Bool) (?Z Bool) (?A1 Bool) (?B1 Bool) (?C1 Bool) (?D1 Real) (?E1 Real) (?F1 Bool) (?G1 Bool) (?H1 Bool) (?I1 Bool) (?J1 Bool) (?K1 Bool) (?L1 Bool) (?M1 Bool) (?N1 Bool) (?O1 Bool) (?P1 Bool) (?Q1 Bool) (?R1 Real) (?S1 Real) (?T1 Real) (?U1 Real) (?V1 Real) (?W1 Real) (?X1 Real) )(let (($x346084 (|cp-rel-__UFO__0| ?A ?B ?C ?D ?E ?F ?G ?H ?R1 ?S1 ?T1 ?U1 ?I ?V1 ?W1 ?X1 ?J ?K ?L ?M ?N ?O ?P ?Q ?H1 ?I1 ?J1 ?D1)))
(let (($x349636 (not ?V)))
(let (($x868193 (or $x349636 ?W)))
(let (($x593569 (not ?B1)))
(let (($x411764 (or $x593569 (and ?Y ?C1 (<= ?D1 ?E1) (>= ?D1 ?E1)) (and ?V ?F1 ?A1 (<= ?D1 ?K) (>= ?D1 ?K)))))
(let (($x788216 (|cp-rel-bb.i80.i| ?A ?B ?C ?D ?E ?F ?G ?H ?I ?J ?K ?L ?M ?N ?O ?P ?Q)))
(let (($x309401 (and $x788216 (= ?Q1 (or ?P1 ?I1)) (= ?P1 (or ?H1 ?O1)) (= ?O1 (= ?D1 0.0)) (= ?E1 (ite ?N1 0.0 ?K)) (= ?N1 (= ?Q 1.0)) (= ?A1 ?M1) (= ?M1 (or ?L1 ?H1)) (= ?L1 (or ?I1 ?J1)) (= ?X (or ?K1 ?J1)) (= ?K1 (or ?I1 ?H1)) (= ?J1 (= ?N 0.0)) (= ?I1 (= ?M 0.0)) (= ?H1 (= ?L 0.0)) (= ?U (= ?K 0.0)) (not (= ?G1 true)) (= ?B1 true) (or $x593569 (and ?C1 (not ?F1)) (and ?F1 (not ?C1))) $x411764 (or (not ?Y) ?Z) (or (not ?Y) (and ?V ?Z (not ?A1))) $x868193 (or $x349636 (and ?R ?W (not ?X))) (or (not ?R) ?T) (or (not ?R) (and ?S ?T (not ?U))) (= ?G1 (or ?Q1 ?J1)))))
(=> $x309401 $x346084)))))))))
)
(assert (forall ((?A Real) (?B Real) (?C Real) (?D Real) (?E Real) (?F Real) (?G Real) (?H Real) (?I Real) (?J Bool) (?K Real) (?L Bool) (?M Bool) (?N Bool) (?O Real) (?P Real) (?Q Real) (?R Real) (?S Real) (?T Real) (?U Real) (?V Real) (?W Real) (?X Real) (?Y Real) (?Z Real) (?A1 Real) (?B1 Real) (?C1 Bool) )(let (($x415589 (|cp-rel-__UFO__0| ?A ?B ?C ?D ?E ?F ?G ?H ?O ?P ?Q ?R ?I ?S ?T ?U ?J ?V ?W ?X ?Y ?Z ?A1 ?B1 ?L ?M ?N ?K)))
(=> (and $x415589 (= ?C1 true)) $x415589)))
)
(assert (forall ((?A Real) (?B Real) (?C Real) (?D Real) (?E Real) (?F Real) (?G Real) (?H Real) (?I Real) (?J Bool) (?K Real) (?L Real) (?M Real) (?N Real) (?O Real) (?P Real) (?Q Real) (?R Bool) (?S Bool) (?T Bool) (?U Bool) (?V Bool) (?W Bool) (?X Bool) (?Y Bool) (?Z Bool) (?A1 Bool) (?B1 Bool) (?C1 Bool) (?D1 Bool) (?E1 Bool) (?F1 Bool) (?G1 Bool) (?H1 Bool) (?I1 Bool) (?J1 Bool) (?K1 Real) (?L1 Real) (?M1 Real) (?N1 Real) (?O1 Bool) (?P1 Bool) (?Q1 Bool) (?R1 Bool) (?S1 Bool) (?T1 Bool) (?U1 Bool) (?V1 Bool) (?W1 Bool) (?X1 Bool) (?Y1 Bool) (?Z1 Bool) (?A2 Bool) (?B2 Bool) (?C2 Real) (?D2 Real) (?E2 Real) (?F2 Real) (?G2 Bool) (?H2 Bool) (?I2 Bool) (?J2 Bool) (?K2 Bool) (?L2 Bool) (?M2 Bool) (?N2 Bool) (?O2 Bool) (?P2 Bool) (?Q2 Bool) (?R2 Bool) (?S2 Bool) (?T2 Bool) (?U2 Real) (?V2 Real) (?W2 Real) (?X2 Real) (?Y2 Bool) (?Z2 Bool) (?A3 Bool) (?B3 Bool) (?C3 Bool) (?D3 Bool) (?E3 Bool) (?F3 Bool) (?G3 Bool) (?H3 Real) (?I3 Bool) (?J3 Real) (?K3 Bool) (?L3 Real) (?M3 Real) )(let (($x533980 (= ?G3 (= ?M3 0.0))))
(let (($x467593 (not ?A1)))
(let (($x320976 (or $x467593 ?B1)))
(let (($x281508 (not ?C1)))
(let (($x865534 (or $x281508 (and ?A1 ?D1 (not ?E1)))))
(let (($x574329 (or $x281508 ?D1)))
(let (($x432233 (or (not ?F1) (and ?C1 ?G1 (not ?H1)))))
(let (($x618508 (or (not ?F1) ?G1)))
(let (($x69602 (>= ?L1 ?L)))
(let (($x252204 (<= ?L1 ?L)))
(let (($x895353 (and ?R ?Q1 ?V (<= ?K1 ?K) (>= ?K1 ?K) $x252204 $x69602 (<= ?N1 ?Q) (>= ?N1 ?Q))))
(let (($x419443 (and ?A1 ?P1 ?E1 (<= ?K1 ?K) (>= ?K1 ?K) $x252204 $x69602 (<= ?N1 ?Q) (>= ?N1 ?Q))))
(let (($x318995 (>= ?N1 1.0)))
(let (($x247910 (<= ?N1 1.0)))
(let (($x418523 (>= ?K1 2.0)))
(let (($x244912 (<= ?K1 2.0)))
(let (($x325477 (not ?I1)))
(let (($x407049 (or $x325477 (and ?F1 ?J1 $x244912 $x418523 (<= ?L1 ?M1) (>= ?L1 ?M1) $x247910 $x318995) (and ?C1 ?O1 ?H1 $x244912 $x418523 $x252204 $x69602 $x247910 $x318995) $x419443 $x895353)))
(let (($x348003 (or $x325477 (and ?J1 (not ?O1) (not ?P1) (not ?Q1)) (and ?O1 (not ?J1) (not ?P1) (not ?Q1)) (and ?P1 (not ?J1) (not ?O1) (not ?Q1)) (and ?Q1 (not ?J1) (not ?O1) (not ?P1)))))
(let (($x273583 (not ?R1)))
(let (($x881681 (or $x273583 (and ?I1 ?S1 ?T1))))
(let (($x625866 (or $x273583 ?S1)))
(let (($x259468 (not ?U1)))
(let (($x260210 (or $x259468 (and ?R1 ?V1 (not ?W1)))))
(let (($x861308 (or $x259468 ?V1)))
(let (($x296801 (or (not ?X1) (and ?U1 ?Y1 ?Z1))))
(let (($x188695 (or (not ?X1) ?Y1)))
(let (($x93078 (>= ?D2 ?M)))
(let (($x176234 (<= ?D2 ?M)))
(let (($x266332 (>= ?C2 ?L1)))
(let (($x174579 (<= ?C2 ?L1)))
(let (($x332604 (and ?I1 ?I2 (not ?T1) $x174579 $x266332 $x176234 $x93078 (<= ?F2 ?P) (>= ?F2 ?P))))
(let (($x226225 (and ?R1 ?H2 ?W1 $x174579 $x266332 $x176234 $x93078 (<= ?F2 ?P) (>= ?F2 ?P))))
(let (($x501976 (>= ?F2 1.0)))
(let (($x319646 (<= ?F2 1.0)))
(let (($x413061 (>= ?C2 2.0)))
(let (($x184721 (<= ?C2 2.0)))
(let (($x51152 (not ?A2)))
(let (($x546516 (or $x51152 (and ?X1 ?B2 $x184721 $x413061 (<= ?D2 ?E2) (>= ?D2 ?E2) $x319646 $x501976) (and ?U1 ?G2 (not ?Z1) $x184721 $x413061 $x176234 $x93078 $x319646 $x501976) $x226225 $x332604)))
(let (($x7011 (or $x51152 (and ?B2 (not ?G2) (not ?H2) (not ?I2)) (and ?G2 (not ?B2) (not ?H2) (not ?I2)) (and ?H2 (not ?B2) (not ?G2) (not ?I2)) (and ?I2 (not ?B2) (not ?G2) (not ?H2)))))
(let (($x837003 (not ?J2)))
(let (($x140183 (or $x837003 (and ?A2 ?K2 ?L2))))
(let (($x80446 (or $x837003 ?K2)))
(let (($x442576 (not ?M2)))
(let (($x130289 (or $x442576 (and ?J2 ?N2 (not ?O2)))))
(let (($x307879 (or $x442576 ?N2)))
(let (($x388211 (not ?P2)))
(let (($x857172 (or $x388211 (and ?M2 ?Q2 ?R2))))
(let (($x912479 (or $x388211 ?Q2)))
(let (($x628031 (>= ?V2 ?N)))
(let (($x414491 (<= ?V2 ?N)))
(let (($x308775 (>= ?U2 ?D2)))
(let (($x466075 (<= ?U2 ?D2)))
(let (($x629434 (and ?A2 ?A3 (not ?L2) $x466075 $x308775 $x414491 $x628031 (<= ?X2 ?O) (>= ?X2 ?O))))
(let (($x361584 (and ?J2 ?Z2 ?O2 $x466075 $x308775 $x414491 $x628031 (<= ?X2 ?O) (>= ?X2 ?O))))
(let (($x831288 (>= ?X2 1.0)))
(let (($x549361 (<= ?X2 1.0)))
(let (($x313139 (>= ?U2 2.0)))
(let (($x343311 (<= ?U2 2.0)))
(let (($x843902 (not ?R2)))
(let (($x288099 (not ?S2)))
(let (($x505925 (or $x288099 (and ?P2 ?T2 $x343311 $x313139 (<= ?V2 ?W2) (>= ?V2 ?W2) $x549361 $x831288) (and ?M2 ?Y2 $x843902 $x343311 $x313139 $x414491 $x628031 $x549361 $x831288) $x361584 $x629434)))
(let (($x417932 (or $x288099 (and ?T2 (not ?Y2) (not ?Z2) (not ?A3)) (and ?Y2 (not ?T2) (not ?Z2) (not ?A3)) (and ?Z2 (not ?T2) (not ?Y2) (not ?A3)) (and ?A3 (not ?T2) (not ?Y2) (not ?Z2)))))
(let (($x582447 (not ?B3)))
(let (($x392768 (or $x582447 (and ?S2 ?C3 ?D3))))
(let (($x689338 (or $x582447 ?C3)))
(let (($x279347 (or (not ?E3) (and ?B3 ?F3 (not ?G3)))))
(let (($x154758 (or (not ?E3) ?F3)))
(let (($x449896 (= ?E3 true)))
(let (($x366734 (= ?E1 (= ?H3 0.0))))
(let (($x282087 (= ?T1 (= ?L1 0.0))))
(let (($x612502 (= ?W1 (= ?J3 0.0))))
(let (($x633784 (= ?L2 (= ?D2 0.0))))
(let (($x801993 (= ?O2 (= ?L3 0.0))))
(let (($x174213 (= ?D3 (= ?V2 0.0))))
(let (($x72963 (|cp-rel-bb.i80.i| ?A ?B ?C ?D ?E ?F ?G ?H ?I ?J ?K ?L ?M ?N ?O ?P ?Q)))
(let (($x609499 (and $x72963 $x174213 (= ?W2 (ite ?J 0.0 ?N)) (= ?R2 (= ?O 1.0)) $x801993 $x633784 (= ?E2 (ite ?K3 0.0 ?M)) (= ?K3 (= ?O 1.0)) (= ?Z1 (= ?P 1.0)) $x612502 $x282087 (= ?M1 (ite ?I3 0.0 ?L)) (= ?I3 (= ?P 1.0)) (= ?H1 (= ?Q 1.0)) (= ?V (or ?Z ?Y)) (= ?Z (or ?X ?W)) (= ?Y (= ?N 0.0)) (= ?X (= ?M 0.0)) (= ?W (= ?L 0.0)) $x366734 (= ?U (= ?K 0.0)) (= ?J true) $x449896 $x154758 $x279347 $x689338 $x392768 $x417932 $x505925 $x912479 $x857172 $x307879 $x130289 $x80446 $x140183 $x7011 $x546516 $x188695 $x296801 $x861308 $x260210 $x625866 $x881681 $x348003 $x407049 $x618508 $x432233 $x574329 $x865534 (or (not ?R) ?T) (or (not ?R) (and ?S ?T (not ?U))) $x320976 (or $x467593 (and ?S ?B1 ?U)) $x533980)))
(=> $x609499 |cp-rel-ERROR.i.i.i.i|)))))))))))))))))))))))))))))))))))))))))))))))))))))))))))))))))))))))))))))))
)
(assert (not cp-rel-ERROR.i.i.i.i))
(check-sat)
